H  C  O  Co Ni                          
    1.000000000000000     
    16.2520484567676036   -4.2149997707617501    0.0000000000000000
     0.0000000000000000   14.0500000000000007    0.0000000000000000
     0.0000000000000000    0.0000000000000000   23.0000270000000029
   H    C    O    Co   Ni
    52     3    93     8    37
Direct
  0.3904610580319081  0.3392581119940413  0.5198945911908737
  0.5318763961767234  0.3415551590473641  0.4447138481929769
  0.4492202702743295  0.5358573017356355  0.4496490009993103
  0.5172775999311706  0.4762047214456980  0.4827896185462771
  0.4268655046521844  0.1180399706838029  0.3924869568349881
  0.2865605690276221  0.3213748837599800  0.4540284563167048
  0.4746353365544284  0.5072549083995753  0.5714127218583065
  0.1480774302391759  0.1379764358355537  0.0251967315947571
  0.2701008202756862  0.0718033575850011  0.1556948297694716
  0.3432455346994186  0.9944708249426446  0.2672402039916218
  0.5246468729685074  0.1616880654533664  0.0693809360334790
  0.5656830451330429  0.0659396851073569  0.1548144442430976
  0.6301705030113490  0.9856447476206246  0.2613858598711775
  0.7993293796853799  0.1524584267081165  0.0426371180233624
  0.8504675717068859  0.0544884198536245  0.1462135784143797
  0.8878965628247645  0.9698194582074352  0.2696925131323169
  0.1151744338354051  0.3553145202455202  0.0249929660693646
  0.2911354133789083  0.2791464447463273  0.1573529381241523
  0.3380983469073714  0.2083196439296912  0.2662197691988312
  0.4683931333453816  0.3207216592215897  0.0206019334438018
  0.5618408492164101  0.2714217744690428  0.1543992519709328
  0.6291030565952253  0.1888432750387675  0.2596947214795601
  0.7567572263789796  0.3188377547059171  0.0122692195288483
  0.8499408948257851  0.2608751719464458  0.1468787544610602
  0.8862071525962315  0.1604941472341568  0.2726462823112774
  0.2101741700183426  0.5610508094716289  0.0620092642362649
  0.2946939665649910  0.4965944663437684  0.1571591389735913
  0.3388488809352682  0.3949109426734706  0.2660611099232701
  0.4727003317562628  0.5597885437697409  0.0214401325976472
  0.5549412639207068  0.4631541250249344  0.1523064082788789
  0.6251700391821619  0.3869547771616926  0.2610845240605004
  0.7799006233804201  0.5403644066800922  0.0326929092376998
  0.8450712817473950  0.4561866014989391  0.1446628960333327
  0.8829588304318265  0.3743706477706527  0.2723078200602704
  0.2127960266457130  0.7592213298628833  0.0518453160777717
  0.2654301222290766  0.6806197795407002  0.1576731293575253
  0.3433703134519922  0.6156546656903666  0.2687450636257464
  0.5181641581162226  0.7543891012406682  0.0610566086106087
  0.5631228359010410  0.6713344332916904  0.1516057949457866
  0.6299023557202410  0.5904574956873627  0.2621970700871569
  0.7437508679247541  0.7040443174273632  0.0055726382639676
  0.8424785411364089  0.6539669272498672  0.1396038923143694
  0.8832677668327944  0.5611524541644317  0.2698751811612871
  0.2083068071753657  0.9671360203333198  0.0535297164463331
  0.2711997431111119  0.8824601684105211  0.1551427359107400
  0.3157427229700931  0.7914955951325000  0.2678724843991860
  0.5189825581587663  0.9520173912138835  0.0501777915085763
  0.5901437506596302  0.8800347164093589  0.1516651459427253
  0.6322097367932684  0.7911196746102682  0.2621334762726455
  0.7374582675206673  0.9272653672853564  0.9986948079019697
  0.8440794987815691  0.8491173253038623  0.1395631236146448
  0.8890646664765464  0.7645736432243861  0.2653023755891669
  0.3901143984514318  0.3928875168171455  0.4854921258125993
  0.4733570829665630  0.3017658316016785  0.4248066854527041
  0.4550745615280051  0.4868262968316722  0.4860450586179574
  0.4232056527704628  0.2372560964133180  0.4518831056421110
  0.3277394464533704  0.3855057097748530  0.4522961788172173
  0.4386861650397688  0.5241641385874944  0.5416783960839253
  0.0680613290748415  0.1092289728103773  0.1632018410936205
  0.1174104839293162  0.0308822085250220  0.2579501889744940
  0.1714561794500361  0.1558873418830157  0.3660657929181403
  0.1100672411334528  0.1314966962660032  0.0577317356778758
  0.2091857442194487  0.0586611431543394  0.1655443460067159
  0.2401742064465325  0.1790667863332021  0.2753639996126577
  0.3618843365121906  0.1000705718460627  0.1377337043435765
  0.4050358209919048  0.0127688523839629  0.2571521858598457
  0.4771310072173349  0.1347760056630525  0.3689383543022563
  0.4667726039221357  0.1390188356349096  0.0577110913689294
  0.5018849920570825  0.0424293113300080  0.1639668010875308
  0.5380165159789029  0.1596176538965118  0.2734329380307067
  0.6516515402192552  0.1014536542366861  0.1372859866834777
  0.6927306988956031  0.0066974207462878  0.2520603238440592
  0.7373708310236817  0.1064267278402509  0.3651796082162299
  0.7394002997659055  0.1318593154268363  0.0417673184323366
  0.7913528596222860  0.0384277145463480  0.1523386754050579
  0.8263267961140371  0.1437236801743750  0.2747815868333394
  0.0640093775466536  0.3223167719853463  0.1714810691021209
  0.1074544971793286  0.2437899996129493  0.2679325317285877
  0.1759070356337399  0.3499010086459655  0.3691545735562992
  0.0877095509282418  0.3352007651088346  0.0618356124978581
  0.1958123659940098  0.2622363873830527  0.1730192364484587
  0.2408329435774588  0.3715643388846114  0.2756166575453557
  0.3525918480060873  0.2976295132634746  0.1464972191013407
  0.3996035781654632  0.2217056559640751  0.2581904525547158
  0.4592761347277746  0.3298138526128105  0.3722165444311685
  0.4228550620674354  0.3172148203911679  0.0473797552635624
  0.4975390265144130  0.2551305894736651  0.1642892089200956
  0.5362419300387430  0.3577118651312281  0.2755194280337441
  0.6461098692996962  0.2888283314557130  0.1376214536248034
  0.6911286017098758  0.2071986783753601  0.2523142131047611
  0.7323283411540868  0.3349684687183208  0.3645908909113345
  0.7096058647894775  0.3102685784223507  0.0380706430738748
  0.7909868784066327  0.2392571218240996  0.1536214256595322
  0.8232018192684322  0.3532205217348418  0.2746211104302042
  0.0545701895543333  0.5298800878960838  0.1486189310520042
  0.1135624524278994  0.4385694481984202  0.2629150353276605
  0.1744340341640389  0.5543707508757681  0.3688526614892254
  0.1501945929727362  0.5442062623596885  0.0604285882323142
  0.1977865350943102  0.4582672554925485  0.1728635169987111
  0.2498975794372301  0.5774984454739782  0.2812475183414546
  0.3551076832226647  0.5144159315934542  0.1460017192156176
  0.4004929392542441  0.4156813034744448  0.2591633245644366
  0.4685802453762077  0.5419861481475794  0.3660678433500789
  0.4286512757893294  0.5363878089149900  0.0493918504667119
  0.4918786051177478  0.4436031397802115  0.1626419978484336
  0.5376090104090738  0.5622238791073100  0.2756343542649504
  0.6432233644451286  0.4955374460796990  0.1366803607595221
  0.6876163751352242  0.4077873006019293  0.2514360200681791
  0.7421929798139111  0.5290904521712626  0.3631679008344717
  0.7206884186507995  0.5186378522433116  0.0385899841589713
  0.7861081433006240  0.4356559239590271  0.1515612480892651
  0.8232565138582119  0.5461353901122613  0.2703948411984630
  0.0705222321097002  0.7238072476998508  0.1480150526296665
  0.1165370877511868  0.6372453469422493  0.2610227003844986
  0.1701911397586949  0.7502601273236517  0.3644934239865916
  0.1530646562398943  0.7442250593964728  0.0566347200854099
  0.2038643649024279  0.6585089454005371  0.1685707945018043
  0.2529151536394109  0.7740865340305317  0.2767634123224220
  0.3511241322078915  0.7115569504262386  0.1316276063998093
  0.4044457631066292  0.6309880772423198  0.2584538490421716
  0.4648975181420792  0.7421628786916249  0.3660797409381397
  0.4587520261985090  0.7400160925681820  0.0541007907830831
  0.4970195427101946  0.6556772045032354  0.1631710173967093
  0.5411592901195156  0.7625207077521925  0.2747473213459320
  0.6425003378883676  0.6883416796412626  0.1352297166979016
  0.6910180282980607  0.6090191271470755  0.2503037320467000
  0.7456654964848279  0.7245383015434239  0.3587205663298262
  0.7011855002206779  0.7031483524426524  0.0343729565378694
  0.7838227477888776  0.6348819606536144  0.1477880874576478
  0.8290131071417483  0.7479948609243257  0.2666997595326738
  0.0657294749349313  0.9135992069404667  0.1468766724135255
  0.1202789903776239  0.8354371972448480  0.2567878570069365
  0.1736745849463705  0.9545123779353144  0.3646413199264940
  0.1483588867424565  0.9457316178739824  0.0551402353968378
  0.2093550761385668  0.8625800843324217  0.1653962352219812
  0.2528636131413473  0.9779630255813744  0.2784021088452584
  0.3609463076905058  0.9088438664741164  0.1355221582803946
  0.4045669506906175  0.8198708510437552  0.2532594020872898
  0.4653374338970807  0.9359895707816778  0.3629953786699731
  0.4589768411533601  0.9363946713057758  0.0524933330466302
  0.4949867657423931  0.8474157730189261  0.1647926330700197
  0.5408360813494995  0.9582671220683855  0.2735704610435592
  0.6495950614181442  0.8973287455762492  0.1385036712930345
  0.6936495720898965  0.8084409426809426  0.2501938511235176
  0.7484185929334412  0.9188818902368285  0.3634017529860543
  0.7034172264599513  0.9150831194553923  0.0333066303749069
  0.7856203270223661  0.8357076612154933  0.1480226570499011
  0.8279577449980782  0.9495071186098788  0.2702922303665765
  0.1080790264983068  0.0305033937705881  0.1108428096305159
  0.7680669377293343  0.0257102942927695  0.3224902216117407
  0.1869966665351840  0.2583182757537702  0.3224849429983523
  0.4077827012119253  0.2175599028954261  0.1023414627316199
  0.0987710570247209  0.4350761674532037  0.1206266505280258
  0.7629304873615337  0.4345827829443892  0.3221898184275882
  0.1949150602393006  0.6581079248932553  0.3247963433923837
  0.4066869293379594  0.6277524100434799  0.1012806391885914
  0.1563706452269907  0.1473902762099557  0.2162575026827150
  0.2004078180108377  0.0605908352821259  0.3185948724443955
  0.4194189004806824  0.0225564301838079  0.1006223266804150
  0.4499055446804453  0.1316055213205097  0.2103121727953826
  0.4985265290494325  0.0426816161182656  0.3178923217428647
  0.6995040803491209  0.0133213541041574  0.0908167272112485
  0.7397590128321289  0.1222375476680570  0.2033914595343298
  0.0990592371489745  0.2312725347386757  0.1166639643593796
  0.1543125443401471  0.3487896744949297  0.2196661718814129
  0.4482955264093309  0.3344152266654704  0.2119155137752288
  0.4938531517604243  0.2413755435101132  0.3164255068601973
  0.6967327319552411  0.2108332537821348  0.0934745152407243
  0.7368595063438872  0.3217759382834798  0.2035662336542584
  0.7667231442504158  0.2302719895564132  0.3204014102265634
  0.1606475875976688  0.5484124418293980  0.2189584365250847
  0.2032858357101022  0.4626593600326314  0.3224195587872658
  0.4032867155575240  0.4199275915222551  0.1012189289982498
  0.4489784705058595  0.5373798706081504  0.2121259693115944
  0.4949234790085043  0.4520832168414626  0.3194847032028961
  0.6915411375097824  0.4071858236693261  0.0925953454428038
  0.7330060376349167  0.5205401961630063  0.1999509384053093
  0.1140437464203162  0.6367888572594115  0.1071473218793720
  0.1620150591680152  0.7485662181781346  0.2137641633109565
  0.4536802169141349  0.7391282832143306  0.2114224730982458
  0.4964566454942662  0.6520646438542995  0.3203083718526009
  0.6851473763976083  0.6040022801839349  0.0902682662975593
  0.7328474966886486  0.7202054605387082  0.1978884323336955
  0.7759009205535057  0.6359406743923079  0.3138854183939387
  0.1175022191476577  0.8348811531417411  0.1056704651099368
  0.1649429698961363  0.9479691333983679  0.2135258544184508
  0.2053732527756658  0.8643395943003811  0.3196212791889036
  0.4142817527484668  0.8260586820640275  0.0998922892734892
  0.4523560995418370  0.9307707696202605  0.2104154424559749
  0.4924608516585963  0.8457159585674097  0.3180160008209572
  0.6914449242652083  0.8071936381832311  0.0880603484826423
  0.7393264333618876  0.9224181236592135  0.2010418920195069
  0.7791193296023528  0.8313686635235672  0.3138781237726314
 
  0.00000000E+00  0.00000000E+00  0.00000000E+00
  0.00000000E+00  0.00000000E+00  0.00000000E+00
  0.00000000E+00  0.00000000E+00  0.00000000E+00
  0.00000000E+00  0.00000000E+00  0.00000000E+00
  0.00000000E+00  0.00000000E+00  0.00000000E+00
  0.00000000E+00  0.00000000E+00  0.00000000E+00
  0.00000000E+00  0.00000000E+00  0.00000000E+00
  0.00000000E+00  0.00000000E+00  0.00000000E+00
  0.00000000E+00  0.00000000E+00  0.00000000E+00
  0.00000000E+00  0.00000000E+00  0.00000000E+00
  0.00000000E+00  0.00000000E+00  0.00000000E+00
  0.00000000E+00  0.00000000E+00  0.00000000E+00
  0.00000000E+00  0.00000000E+00  0.00000000E+00
  0.00000000E+00  0.00000000E+00  0.00000000E+00
  0.00000000E+00  0.00000000E+00  0.00000000E+00
  0.00000000E+00  0.00000000E+00  0.00000000E+00
  0.00000000E+00  0.00000000E+00  0.00000000E+00
  0.00000000E+00  0.00000000E+00  0.00000000E+00
  0.00000000E+00  0.00000000E+00  0.00000000E+00
  0.00000000E+00  0.00000000E+00  0.00000000E+00
  0.00000000E+00  0.00000000E+00  0.00000000E+00
  0.00000000E+00  0.00000000E+00  0.00000000E+00
  0.00000000E+00  0.00000000E+00  0.00000000E+00
  0.00000000E+00  0.00000000E+00  0.00000000E+00
  0.00000000E+00  0.00000000E+00  0.00000000E+00
  0.00000000E+00  0.00000000E+00  0.00000000E+00
  0.00000000E+00  0.00000000E+00  0.00000000E+00
  0.00000000E+00  0.00000000E+00  0.00000000E+00
  0.00000000E+00  0.00000000E+00  0.00000000E+00
  0.00000000E+00  0.00000000E+00  0.00000000E+00
  0.00000000E+00  0.00000000E+00  0.00000000E+00
  0.00000000E+00  0.00000000E+00  0.00000000E+00
  0.00000000E+00  0.00000000E+00  0.00000000E+00
  0.00000000E+00  0.00000000E+00  0.00000000E+00
  0.00000000E+00  0.00000000E+00  0.00000000E+00
  0.00000000E+00  0.00000000E+00  0.00000000E+00
  0.00000000E+00  0.00000000E+00  0.00000000E+00
  0.00000000E+00  0.00000000E+00  0.00000000E+00
  0.00000000E+00  0.00000000E+00  0.00000000E+00
  0.00000000E+00  0.00000000E+00  0.00000000E+00
  0.00000000E+00  0.00000000E+00  0.00000000E+00
  0.00000000E+00  0.00000000E+00  0.00000000E+00
  0.00000000E+00  0.00000000E+00  0.00000000E+00
  0.00000000E+00  0.00000000E+00  0.00000000E+00
  0.00000000E+00  0.00000000E+00  0.00000000E+00
  0.00000000E+00  0.00000000E+00  0.00000000E+00
  0.00000000E+00  0.00000000E+00  0.00000000E+00
  0.00000000E+00  0.00000000E+00  0.00000000E+00
  0.00000000E+00  0.00000000E+00  0.00000000E+00
  0.00000000E+00  0.00000000E+00  0.00000000E+00
  0.00000000E+00  0.00000000E+00  0.00000000E+00
  0.00000000E+00  0.00000000E+00  0.00000000E+00
  0.00000000E+00  0.00000000E+00  0.00000000E+00
  0.00000000E+00  0.00000000E+00  0.00000000E+00
  0.00000000E+00  0.00000000E+00  0.00000000E+00
  0.00000000E+00  0.00000000E+00  0.00000000E+00
  0.00000000E+00  0.00000000E+00  0.00000000E+00
  0.00000000E+00  0.00000000E+00  0.00000000E+00
  0.00000000E+00  0.00000000E+00  0.00000000E+00
  0.00000000E+00  0.00000000E+00  0.00000000E+00
  0.00000000E+00  0.00000000E+00  0.00000000E+00
  0.00000000E+00  0.00000000E+00  0.00000000E+00
  0.00000000E+00  0.00000000E+00  0.00000000E+00
  0.00000000E+00  0.00000000E+00  0.00000000E+00
  0.00000000E+00  0.00000000E+00  0.00000000E+00
  0.00000000E+00  0.00000000E+00  0.00000000E+00
  0.00000000E+00  0.00000000E+00  0.00000000E+00
  0.00000000E+00  0.00000000E+00  0.00000000E+00
  0.00000000E+00  0.00000000E+00  0.00000000E+00
  0.00000000E+00  0.00000000E+00  0.00000000E+00
  0.00000000E+00  0.00000000E+00  0.00000000E+00
  0.00000000E+00  0.00000000E+00  0.00000000E+00
  0.00000000E+00  0.00000000E+00  0.00000000E+00
  0.00000000E+00  0.00000000E+00  0.00000000E+00
  0.00000000E+00  0.00000000E+00  0.00000000E+00
  0.00000000E+00  0.00000000E+00  0.00000000E+00
  0.00000000E+00  0.00000000E+00  0.00000000E+00
  0.00000000E+00  0.00000000E+00  0.00000000E+00
  0.00000000E+00  0.00000000E+00  0.00000000E+00
  0.00000000E+00  0.00000000E+00  0.00000000E+00
  0.00000000E+00  0.00000000E+00  0.00000000E+00
  0.00000000E+00  0.00000000E+00  0.00000000E+00
  0.00000000E+00  0.00000000E+00  0.00000000E+00
  0.00000000E+00  0.00000000E+00  0.00000000E+00
  0.00000000E+00  0.00000000E+00  0.00000000E+00
  0.00000000E+00  0.00000000E+00  0.00000000E+00
  0.00000000E+00  0.00000000E+00  0.00000000E+00
  0.00000000E+00  0.00000000E+00  0.00000000E+00
  0.00000000E+00  0.00000000E+00  0.00000000E+00
  0.00000000E+00  0.00000000E+00  0.00000000E+00
  0.00000000E+00  0.00000000E+00  0.00000000E+00
  0.00000000E+00  0.00000000E+00  0.00000000E+00
  0.00000000E+00  0.00000000E+00  0.00000000E+00
  0.00000000E+00  0.00000000E+00  0.00000000E+00
  0.00000000E+00  0.00000000E+00  0.00000000E+00
  0.00000000E+00  0.00000000E+00  0.00000000E+00
  0.00000000E+00  0.00000000E+00  0.00000000E+00
  0.00000000E+00  0.00000000E+00  0.00000000E+00
  0.00000000E+00  0.00000000E+00  0.00000000E+00
  0.00000000E+00  0.00000000E+00  0.00000000E+00
  0.00000000E+00  0.00000000E+00  0.00000000E+00
  0.00000000E+00  0.00000000E+00  0.00000000E+00
  0.00000000E+00  0.00000000E+00  0.00000000E+00
  0.00000000E+00  0.00000000E+00  0.00000000E+00
  0.00000000E+00  0.00000000E+00  0.00000000E+00
  0.00000000E+00  0.00000000E+00  0.00000000E+00
  0.00000000E+00  0.00000000E+00  0.00000000E+00
  0.00000000E+00  0.00000000E+00  0.00000000E+00
  0.00000000E+00  0.00000000E+00  0.00000000E+00
  0.00000000E+00  0.00000000E+00  0.00000000E+00
  0.00000000E+00  0.00000000E+00  0.00000000E+00
  0.00000000E+00  0.00000000E+00  0.00000000E+00
  0.00000000E+00  0.00000000E+00  0.00000000E+00
  0.00000000E+00  0.00000000E+00  0.00000000E+00
  0.00000000E+00  0.00000000E+00  0.00000000E+00
  0.00000000E+00  0.00000000E+00  0.00000000E+00
  0.00000000E+00  0.00000000E+00  0.00000000E+00
  0.00000000E+00  0.00000000E+00  0.00000000E+00
  0.00000000E+00  0.00000000E+00  0.00000000E+00
  0.00000000E+00  0.00000000E+00  0.00000000E+00
  0.00000000E+00  0.00000000E+00  0.00000000E+00
  0.00000000E+00  0.00000000E+00  0.00000000E+00
  0.00000000E+00  0.00000000E+00  0.00000000E+00
  0.00000000E+00  0.00000000E+00  0.00000000E+00
  0.00000000E+00  0.00000000E+00  0.00000000E+00
  0.00000000E+00  0.00000000E+00  0.00000000E+00
  0.00000000E+00  0.00000000E+00  0.00000000E+00
  0.00000000E+00  0.00000000E+00  0.00000000E+00
  0.00000000E+00  0.00000000E+00  0.00000000E+00
  0.00000000E+00  0.00000000E+00  0.00000000E+00
  0.00000000E+00  0.00000000E+00  0.00000000E+00
  0.00000000E+00  0.00000000E+00  0.00000000E+00
  0.00000000E+00  0.00000000E+00  0.00000000E+00
  0.00000000E+00  0.00000000E+00  0.00000000E+00
  0.00000000E+00  0.00000000E+00  0.00000000E+00
  0.00000000E+00  0.00000000E+00  0.00000000E+00
  0.00000000E+00  0.00000000E+00  0.00000000E+00
  0.00000000E+00  0.00000000E+00  0.00000000E+00
  0.00000000E+00  0.00000000E+00  0.00000000E+00
  0.00000000E+00  0.00000000E+00  0.00000000E+00
  0.00000000E+00  0.00000000E+00  0.00000000E+00
  0.00000000E+00  0.00000000E+00  0.00000000E+00
  0.00000000E+00  0.00000000E+00  0.00000000E+00
  0.00000000E+00  0.00000000E+00  0.00000000E+00
  0.00000000E+00  0.00000000E+00  0.00000000E+00
  0.00000000E+00  0.00000000E+00  0.00000000E+00
  0.00000000E+00  0.00000000E+00  0.00000000E+00
  0.00000000E+00  0.00000000E+00  0.00000000E+00
  0.00000000E+00  0.00000000E+00  0.00000000E+00
  0.00000000E+00  0.00000000E+00  0.00000000E+00
  0.00000000E+00  0.00000000E+00  0.00000000E+00
  0.00000000E+00  0.00000000E+00  0.00000000E+00
  0.00000000E+00  0.00000000E+00  0.00000000E+00
  0.00000000E+00  0.00000000E+00  0.00000000E+00
  0.00000000E+00  0.00000000E+00  0.00000000E+00
  0.00000000E+00  0.00000000E+00  0.00000000E+00
  0.00000000E+00  0.00000000E+00  0.00000000E+00
  0.00000000E+00  0.00000000E+00  0.00000000E+00
  0.00000000E+00  0.00000000E+00  0.00000000E+00
  0.00000000E+00  0.00000000E+00  0.00000000E+00
  0.00000000E+00  0.00000000E+00  0.00000000E+00
  0.00000000E+00  0.00000000E+00  0.00000000E+00
  0.00000000E+00  0.00000000E+00  0.00000000E+00
  0.00000000E+00  0.00000000E+00  0.00000000E+00
  0.00000000E+00  0.00000000E+00  0.00000000E+00
  0.00000000E+00  0.00000000E+00  0.00000000E+00
  0.00000000E+00  0.00000000E+00  0.00000000E+00
  0.00000000E+00  0.00000000E+00  0.00000000E+00
  0.00000000E+00  0.00000000E+00  0.00000000E+00
  0.00000000E+00  0.00000000E+00  0.00000000E+00
  0.00000000E+00  0.00000000E+00  0.00000000E+00
  0.00000000E+00  0.00000000E+00  0.00000000E+00
  0.00000000E+00  0.00000000E+00  0.00000000E+00
  0.00000000E+00  0.00000000E+00  0.00000000E+00
  0.00000000E+00  0.00000000E+00  0.00000000E+00
  0.00000000E+00  0.00000000E+00  0.00000000E+00
  0.00000000E+00  0.00000000E+00  0.00000000E+00
  0.00000000E+00  0.00000000E+00  0.00000000E+00
  0.00000000E+00  0.00000000E+00  0.00000000E+00
  0.00000000E+00  0.00000000E+00  0.00000000E+00
  0.00000000E+00  0.00000000E+00  0.00000000E+00
  0.00000000E+00  0.00000000E+00  0.00000000E+00
  0.00000000E+00  0.00000000E+00  0.00000000E+00
  0.00000000E+00  0.00000000E+00  0.00000000E+00
  0.00000000E+00  0.00000000E+00  0.00000000E+00
  0.00000000E+00  0.00000000E+00  0.00000000E+00
  0.00000000E+00  0.00000000E+00  0.00000000E+00
  0.00000000E+00  0.00000000E+00  0.00000000E+00
  0.00000000E+00  0.00000000E+00  0.00000000E+00
  0.00000000E+00  0.00000000E+00  0.00000000E+00
  0.00000000E+00  0.00000000E+00  0.00000000E+00
  0.00000000E+00  0.00000000E+00  0.00000000E+00
  0.00000000E+00  0.00000000E+00  0.00000000E+00
